certificates/rado_a14_c94_N39.cnf
c Rad2 upper bound instance: x1 + 14*x2 - x3 = 94, interval [1,39]
p cnf 39 216
1 5 7 0
-1 -5 -7 0
1 8 19 0
-1 -8 -19 0
1 9 33 0
-1 -9 -33 0
2 6 7 0
-2 -6 -7 0
2 8 20 0
-2 -8 -20 0
2 9 34 0
-2 -9 -34 0
3 7 0
-3 -7 0
3 8 21 0
-3 -8 -21 0
3 9 35 0
-3 -9 -35 0
4 7 8 0
-4 -7 -8 0
4 8 22 0
-4 -8 -22 0
4 9 36 0
-4 -9 -36 0
5 7 9 0
-5 -7 -9 0
5 8 23 0
-5 -8 -23 0
5 9 37 0
-5 -9 -37 0
6 7 10 0
-6 -7 -10 0
6 8 24 0
-6 -8 -24 0
6 9 38 0
-6 -9 -38 0
7 11 0
-7 -11 0
7 8 25 0
-7 -8 -25 0
7 9 39 0
-7 -9 -39 0
7 8 12 0
-7 -8 -12 0
8 26 0
-8 -26 0
7 9 13 0
-7 -9 -13 0
8 9 27 0
-8 -9 -27 0
7 10 14 0
-7 -10 -14 0
8 10 28 0
-8 -10 -28 0
1 6 11 0
-1 -6 -11 0
7 11 15 0
-7 -11 -15 0
8 11 29 0
-8 -11 -29 0
2 6 12 0
-2 -6 -12 0
7 12 16 0
-7 -12 -16 0
8 12 30 0
-8 -12 -30 0
3 6 13 0
-3 -6 -13 0
7 13 17 0
-7 -13 -17 0
8 13 31 0
-8 -13 -31 0
4 6 14 0
-4 -6 -14 0
7 14 18 0
-7 -14 -18 0
8 14 32 0
-8 -14 -32 0
5 6 15 0
-5 -6 -15 0
7 15 19 0
-7 -15 -19 0
8 15 33 0
-8 -15 -33 0
6 16 0
-6 -16 0
7 16 20 0
-7 -16 -20 0
8 16 34 0
-8 -16 -34 0
6 7 17 0
-6 -7 -17 0
7 17 21 0
-7 -17 -21 0
8 17 35 0
-8 -17 -35 0
6 8 18 0
-6 -8 -18 0
7 18 22 0
-7 -18 -22 0
8 18 36 0
-8 -18 -36 0
6 9 19 0
-6 -9 -19 0
7 19 23 0
-7 -19 -23 0
8 19 37 0
-8 -19 -37 0
6 10 20 0
-6 -10 -20 0
7 20 24 0
-7 -20 -24 0
8 20 38 0
-8 -20 -38 0
6 11 21 0
-6 -11 -21 0
7 21 25 0
-7 -21 -25 0
8 21 39 0
-8 -21 -39 0
6 12 22 0
-6 -12 -22 0
7 22 26 0
-7 -22 -26 0
6 13 23 0
-6 -13 -23 0
7 23 27 0
-7 -23 -27 0
6 14 24 0
-6 -14 -24 0
7 24 28 0
-7 -24 -28 0
1 5 25 0
-1 -5 -25 0
6 15 25 0
-6 -15 -25 0
7 25 29 0
-7 -25 -29 0
2 5 26 0
-2 -5 -26 0
6 16 26 0
-6 -16 -26 0
7 26 30 0
-7 -26 -30 0
3 5 27 0
-3 -5 -27 0
6 17 27 0
-6 -17 -27 0
7 27 31 0
-7 -27 -31 0
4 5 28 0
-4 -5 -28 0
6 18 28 0
-6 -18 -28 0
7 28 32 0
-7 -28 -32 0
5 29 0
-5 -29 0
6 19 29 0
-6 -19 -29 0
7 29 33 0
-7 -29 -33 0
5 6 30 0
-5 -6 -30 0
6 20 30 0
-6 -20 -30 0
7 30 34 0
-7 -30 -34 0
5 7 31 0
-5 -7 -31 0
6 21 31 0
-6 -21 -31 0
7 31 35 0
-7 -31 -35 0
5 8 32 0
-5 -8 -32 0
6 22 32 0
-6 -22 -32 0
7 32 36 0
-7 -32 -36 0
5 9 33 0
-5 -9 -33 0
6 23 33 0
-6 -23 -33 0
7 33 37 0
-7 -33 -37 0
5 10 34 0
-5 -10 -34 0
6 24 34 0
-6 -24 -34 0
7 34 38 0
-7 -34 -38 0
5 11 35 0
-5 -11 -35 0
6 25 35 0
-6 -25 -35 0
7 35 39 0
-7 -35 -39 0
5 12 36 0
-5 -12 -36 0
6 26 36 0
-6 -26 -36 0
5 13 37 0
-5 -13 -37 0
6 27 37 0
-6 -27 -37 0
5 14 38 0
-5 -14 -38 0
6 28 38 0
-6 -28 -38 0
1 4 39 0
-1 -4 -39 0
5 15 39 0
-5 -15 -39 0
6 29 39 0
-6 -29 -39 0
