certificates/rado_a14_c94_N39.drat
-35 -39 0
d -35 -7 -39 0
9 7 -37 0
7 -36 -37 -38 0
-7 -39 0
5 -39 0
-39 0
-5 -7 0
9 0
-7 0
3 0
11 0
35 0
0
